saida/PL_exemplo_3.lp.lp
\ENCODING=ISO-8859-1
\Problem name: IloCplex

Minimize
 obj: x1 + 3 x2 + 9 x3 + x4 + 2 x5 + 10 x6 + 9 x7 + 4 x8 + 9 x9 + 2 x10 + x11
      + 2 x12 + 3 x13 + 10 x14 + 3 x15 + 44 x16 + 23 x17 + 11 x18 + 4 x19
      + 9 x20 + 3 x21 + 9 x22 + x23 + 32 x24 + 12 x25 + 95 x26 + 31 x27 + 2 x28
      + 33 x29 + 3 x30 + 95 x31 + 64 x32 + 81 x33 + 90 x34 + 43 x35 + 223 x36
      + 44 x37 + 2 x38 + 32 x39 + 44 x40 + 9 x41 + 4 x42 + 32 x43 + 8 x44
      + 9 x45 + 9 x46 + 3 x47 + 2 x48 + 3 x49 + 9 x50 + 4 x51 + 2 x52 + x53
      + 3 x54 + 44 x55 + 9 x56 + 10 x57 + 99 x58 + 312 x59 + x60 + 8 x61
      + 8 x62 + 8 x63 + 88 x64 + 9 x65 + 3 x66 + 4 x67 + 2 x68 + 12 x69 + 9 x70
      + 2 x71 + 12 x72 + 34 x73 + 32 x74 + 98 x75 + 93 x76 + 11 x77 + 53 x78
      + 2 x79 + 2 x80 + 3 x81 + 4 x82 + x83 + 4 x84 + 5 x85 + 2 x86 + 3 x87
      + 4 x88 + 5 x89 + x90 + 3 x91 + 5 x92 + 6 x93 + 7 x94 + 8 x95 + 9 x96
      + 4 x97 + 5 x98 + 7 x99 + 8 x100 + x101
Subject To
 c1:  x1 + x2 + x3 + x4 + x5 + x6 + x7 + x8 + x9 + x10 <= 4950
 c2:  x11 + x12 + x13 + x14 + x15 + x16 + x17 + x18 + x19 + x20 <= 1523
 c3:  x21 + x22 + x23 + x24 + x25 + x26 + x27 + x28 + x29 + x30 <= 444
 c4:  x31 + x32 + x33 + x34 + x35 + x36 + x37 + x38 + x39 + x40 <= 3204
 c5:  x41 + x42 + x43 + x44 + x45 + x46 + x47 + x48 + x49 + x50 <= 123
 c6:  x51 + x52 + x53 + x54 + x55 + x56 + x57 + x58 + x59 + x60 <= 994
 c7:  x61 + x62 + x63 + x64 + x65 + x66 + x67 + x68 + x69 + x70 <= 2345
 c8:  x71 + x72 + x73 + x74 + x75 + x76 + x77 + x78 + x79 + x80 <= 999
 c9:  x81 + x82 + x83 + x84 + x85 + x86 + x87 + x88 + x89 + x90 <= 234
 c10: x91 + x92 + x93 + x94 + x95 + x96 + x97 + x98 + x99 + x100 <= 3345
 c11: x1 + x11 + x21 + x31 + x41 + x51 + x61 + x71 + x81 + x91 >= 1000
 c12: x2 + x12 + x22 + x32 + x42 + x52 + x62 + x72 + x82 + x92 >= 443
 c13: x3 + x13 + x23 + x33 + x43 + x53 + x63 + x73 + x83 + x93 >= 994
 c14: x4 + x14 + x24 + x34 + x44 + x54 + x64 + x74 + x84 + x94 >= 858
 c15: x5 + x15 + x25 + x35 + x45 + x55 + x65 + x75 + x85 + x95 >= 2345
 c16: x6 + x16 + x26 + x36 + x46 + x56 + x66 + x76 + x86 + x96 >= 2344
 c17: x7 + x17 + x27 + x37 + x47 + x57 + x67 + x77 + x87 + x97 >= 998
 c18: x8 + x18 + x28 + x38 + x48 + x58 + x68 + x78 + x88 + x98 >= 1234
 c19: x9 + x19 + x29 + x39 + x49 + x59 + x69 + x79 + x89 + x99 >= 3945
 c20: x10 + x20 + x30 + x40 + x50 + x60 + x70 + x80 + x90 + x100 >= 4000
Bounds
      x101 = 0
End
