saida/PL_exemplo_3.lp
0 0 0 858 1320 0 0 0 0 2772 
0 0 498 0 1025 0 0 0 0 0 
0 0 444 0 0 0 0 0 0 0 
0 0 0 0 0 0 0 1234 1970 0 
0 0 0 0 0 0 0 0 123 0 
0 0 0 0 0 0 0 0 0 994 
0 0 0 0 0 2344 1 0 0 0 
0 0 0 0 0 0 0 0 999 0 
0 0 0 0 0 0 0 0 0 234 
1000 443 52 0 0 0 997 0 853 0 
Primal
Balanceado: Sim
Status: Optimal
Valor Fobj: 105680
Tempo: 0.002029 second(s)